nr_shelves = 10;
shelves = [7, 7, 4];

Product = P(1..3);

product_size = 
[|       Length: Width: Height: 
 | P(1):      3,     3,      3
 | P(2):      3,     2,      4
 | P(3):      5,     3,      1
 |];

nr_products = [20, 3, 2];
